NAME: tiny8
TYPE: TSP
COMMENT: Test dataset with 8 cities (random pattern)
DIMENSION: 8
EDGE_WEIGHT_TYPE: EUC_2D
NODE_COORD_SECTION
1 0.296104 59.839722
2 71.909105 1.397156
3 86.632819 63.887791
4 53.459017 41.857041
5 86.623731 49.783588
6 51.813028 26.093921
7 72.704501 92.733961
8 9.613597 54.263675
EOF
